50
12197

862 681
61 267
13 214
615 625
931 713
850 514
703 207
326 29
242 238
143 168
622 609
616 52
33 843
345 662
617 468
157 79
910 314
469 220
74 172
16 748
39 476
266 137
713 77
513 132
546 174
75 938
290 275
241 224
560 954
544 409
587 609
637 675
355 887
305 118
886 677
381 164
777 93
532 320
119 910
793 506
392 952
545 913
654 443
614 821
150 915
657 911
131 295
977 128
297 435
182 758
